db/data/126152515873313340897866162623629603.z3.out
-------------------
2500.173975091
